(set-option :produce-models true)
(set-logic all)
(define-fun s2 () string "select msg from msgs where topicid='")
(define-fun s3 () string "my_topicid")
(define-fun s4 () string "'")
(declare-fun s0 () string)
(declare-fun s1 () string)
(define-fun s5 () string (str.++ s0 s4))
(define-fun s6 () string (str.++ s2 s5))
(define-fun s7 () bool (str.in.re s6 (re.++ (re.+ (re.++ (re.union (re.++ (str.to.re "select ") (re.union ((_ re.loop 1 7) (re.range "a" "z")) (str.to.re "*")) (str.to.re " from ") ((_ re.loop 1 7) (re.range "a" "z")) (re.opt (re.++ (str.to.re " where ") ((_ re.loop 1 7) (re.range "a" "z")) (str.to.re "=") (re.union ((_ re.loop 1 7) (re.range "a" "z")) (re.++ (str.to.re "'") ((_ re.loop 1 5) (re.union (re.range "a" "z") (str.to.re " "))) (str.to.re "'")))))) (re.++ (str.to.re "drop table ") (re.union ((_ re.loop 1 7) (re.range "a" "z")) (re.++ (str.to.re "'") ((_ re.loop 1 5) (re.union (re.range "a" "z") (str.to.re " "))) (str.to.re "'"))))) (str.to.re "; "))) (str.to.re "drop table 'users'"))))
(assert s7)
(check-sat)